200 1494
561 488 74 212 944 119 664 629 936 1366 1193 1489 406 78 1350 326 119 1124 77 1181 1249 1360 1119 139 1129 615 663 840 779 1446 259 442 890 249 1273 1416 509 343 167 690 1151 970 653 243 1116 388 597 811 804 255 392 1283 801 1268 631 331 1053 1062 668 686 889 771 222 1048 505 931 441 181 1347 1022 890 500 529 776 143 920 891 613 706 1080 880 1141 553 1167 1433 1032 704 478 1137 853 624 644 682 913 8 1309 759 386 725 519 56 291 321 424 230 1123 32 1305 33 254 1413 159 865 585 818 726 1352 605 1329 1236 1107 844 121 1431 1124 1302 1369 1129 1448 827 644 946 345 102 218 183 506 1092 344 1048 73 161 804 1052 1306 108 1199 334 1254 43 1089 206 1378 615 1428 393 461 495 1242 696 385 748 1375 758 1189 40 933 496 1174 223 920 847 1146 215 651 63 494 886 422 1323 1362 192 146 114 373 762 865 143 763 1302 1122 319 1383 736 139 1239 124 104 523 1024 